proyfinal/src/viki/013/experimentInOfficeAgust.take6.output/ddccc47d-ab0c-4992-8852-0534614569fb.als.dat
{'cnf.clauses': '118081',
 'cnf.totvars': '69608',
 'conflict literals': '7',
 'conflicts': '5',
 'decisions': '1015',
 'memused.mb': '16.64',
 'outcome': 'UNSAT',
 'propagations': '20431',
 'restarts': '1',
 'solver.msecs': 34,
 'task.msecs': 90}
