proyfinal/src/viki/013/experimentInOfficeAgust.take6.output/ddccc47d-ab0c-4992-8852-0534614569fb.als.out
Reading from standard input... Use '--help' for help.
============================[ Problem Statistics ]=============================
|                                                                             |
|  Number of variables:         69608                                         |
|  Number of clauses:          118081                                         |
|  Parse time:                   0.03 s                                       |
|                                                                             |
============================[ Search Statistics ]==============================
| Conflicts |          ORIGINAL         |          LEARNT          | Progress |
|           |    Vars  Clauses Literals |    Limit  Clauses Lit/Cl |          |
===============================================================================
===============================================================================
restarts              : 1
conflicts             : 5              (143 /sec)
decisions             : 1015           (0.00 % random) (29049 /sec)
propagations          : 20431          (584729 /sec)
conflict literals     : 7              (0.00 % deleted)
Memory used           : 16.64 MB
CPU time              : 0.034941 s

UNSATISFIABLE
